55
2 0 1
3 1 1
3 2 1
4 1 1
4 2 1
4 3 1
5 1 1
6 0 1
6 1 1
6 4 1
7 0 1
7 1 1
7 5 1
8 0 1
8 2 1
8 6 1
8 7 1
9 0 1
9 1 1
9 2 1
9 3 1
9 6 1
10 0 1
10 1 1
10 3 1
10 4 1
10 5 1
10 6 1
10 8 1
10 9 1
11 0 1
11 1 1
11 5 1
11 7 1
11 10 1
12 1 1
12 3 1
12 6 1
12 7 1
12 9 1
12 10 1
12 11 1
13 0 1
13 3 1
13 4 1
13 5 1
13 6 1
13 7 1
13 9 1
13 11 1
13 12 1
14 0 1
14 1 1
14 2 1
14 3 1
14 4 1
14 7 1
14 8 1
14 9 1
14 10 1
14 12 1
14 13 1
15 0 1
15 1 1
15 2 1
15 4 1
15 5 1
15 9 1
15 11 1
16 1 1
16 2 1
16 3 1
16 4 1
16 5 1
16 8 1
16 10 1
16 11 1
16 13 1
16 15 1
17 0 1
17 2 1
17 3 1
17 5 1
17 9 1
17 10 1
17 11 1
17 15 1
18 0 1
18 1 1
18 3 1
18 5 1
18 7 1
18 10 1
18 11 1
18 12 1
18 13 1
18 17 1
19 0 1
19 3 1
19 7 1
19 9 1
19 12 1
20 0 1
20 2 1
20 3 1
20 5 1
20 7 1
20 9 1
20 13 1
20 14 1
20 17 1
21 2 1
21 3 1
21 4 1
21 5 1
21 6 1
21 7 1
21 9 1
21 13 1
21 14 1
21 17 1
21 19 1
21 20 1
22 3 1
22 8 1
22 12 1
22 14 1
22 15 1
22 16 1
22 18 1
22 19 1
22 20 1
23 0 1
23 3 1
23 6 1
23 10 1
23 13 1
23 14 1
23 17 1
23 18 1
23 20 1
24 2 1
24 3 1
24 7 1
24 8 1
24 9 1
24 10 1
24 11 1
24 12 1
24 13 1
24 15 1
24 18 1
24 19 1
24 23 1
25 0 1
25 5 1
25 6 1
25 7 1
25 9 1
25 10 1
25 15 1
25 16 1
25 17 1
25 18 1
25 23 1
26 0 1
26 1 1
26 3 1
26 4 1
26 7 1
26 8 1
26 10 1
26 11 1
26 12 1
26 14 1
26 15 1
26 17 1
26 18 1
26 21 1
26 22 1
26 24 1
26 25 1
27 0 1
27 1 1
27 2 1
27 3 1
27 5 1
27 8 1
27 10 1
27 13 1
27 19 1
27 21 1
27 24 1
27 25 1
27 26 1
28 1 1
28 2 1
28 4 1
28 5 1
28 9 1
28 13 1
28 14 1
28 16 1
28 18 1
28 20 1
28 23 1
28 24 1
28 25 1
28 27 1
29 1 1
29 3 1
29 5 1
29 8 1
29 10 1
29 11 1
29 12 1
29 14 1
29 16 1
29 20 1
29 23 1
29 26 1
29 27 1
29 28 1
30 1 1
30 5 1
30 6 1
30 9 1
30 10 1
30 11 1
30 12 1
30 13 1
30 14 1
30 15 1
30 16 1
30 23 1
30 25 1
30 26 1
30 27 1
31 0 1
31 3 1
31 7 1
31 9 1
31 11 1
31 12 1
31 13 1
31 14 1
31 17 1
31 19 1
31 24 1
31 25 1
31 27 1
31 28 1
31 29 1
31 30 1
32 2 1
32 3 1
32 4 1
32 5 1
32 7 1
32 9 1
32 10 1
32 12 1
32 14 1
32 15 1
32 17 1
32 18 1
32 19 1
32 22 1
32 25 1
32 26 1
32 28 1
32 29 1
33 0 1
33 1 1
33 3 1
33 5 1
33 8 1
33 13 1
33 16 1
33 17 1
33 18 1
33 23 1
34 1 1
34 2 1
34 3 1
34 5 1
34 6 1
34 9 1
34 11 1
34 17 1
34 18 1
34 23 1
34 24 1
34 25 1
34 26 1
34 30 1
34 31 1
34 32 1
35 4 1
35 5 1
35 7 1
35 8 1
35 11 1
35 12 1
35 15 1
35 16 1
35 19 1
35 22 1
35 24 1
35 25 1
35 29 1
35 32 1
35 34 1
36 4 1
36 6 1
36 8 1
36 9 1
36 10 1
36 12 1
36 14 1
36 15 1
36 17 1
36 20 1
36 25 1
36 27 1
36 29 1
36 30 1
36 33 1
36 34 1
37 1 1
37 2 1
37 3 1
37 4 1
37 6 1
37 9 1
37 10 1
37 11 1
37 12 1
37 13 1
37 14 1
37 15 1
37 19 1
37 21 1
37 22 1
37 23 1
37 25 1
37 28 1
37 31 1
37 32 1
37 33 1
37 35 1
37 36 1
38 0 1
38 2 1
38 3 1
38 4 1
38 5 1
38 7 1
38 11 1
38 12 1
38 14 1
38 16 1
38 17 1
38 19 1
38 20 1
38 22 1
38 34 1
38 35 1
39 0 1
39 1 1
39 3 1
39 4 1
39 6 1
39 7 1
39 8 1
39 11 1
39 13 1
39 14 1
39 18 1
39 20 1
39 23 1
39 27 1
39 33 1
39 34 1
39 38 1
40 7 1
40 8 1
40 10 1
40 11 1
40 12 1
40 14 1
40 15 1
40 16 1
40 18 1
40 19 1
40 21 1
40 22 1
40 23 1
40 25 1
40 27 1
40 28 1
40 29 1
40 30 1
40 32 1
40 33 1
40 34 1
40 35 1
40 36 1
40 37 1
40 39 1
41 0 1
41 9 1
41 11 1
41 19 1
41 20 1
41 21 1
41 22 1
41 23 1
41 25 1
41 30 1
41 31 1
41 34 1
41 37 1
41 38 1
42 0 1
42 1 1
42 3 1
42 4 1
42 5 1
42 7 1
42 9 1
42 10 1
42 11 1
42 12 1
42 16 1
42 17 1
42 18 1
42 20 1
42 22 1
42 25 1
42 30 1
42 31 1
42 32 1
42 33 1
42 34 1
42 36 1
42 40 1
43 2 1
43 4 1
43 5 1
43 6 1
43 9 1
43 11 1
43 12 1
43 17 1
43 18 1
43 19 1
43 21 1
43 22 1
43 23 1
43 26 1
43 31 1
43 33 1
43 35 1
43 36 1
43 38 1
43 39 1
43 40 1
43 42 1
44 0 1
44 1 1
44 2 1
44 5 1
44 6 1
44 7 1
44 9 1
44 11 1
44 13 1
44 15 1
44 16 1
44 20 1
44 21 1
44 22 1
44 24 1
44 25 1
44 26 1
44 27 1
44 30 1
44 36 1
44 37 1
44 38 1
44 39 1
44 43 1
45 1 1
45 2 1
45 6 1
45 8 1
45 10 1
45 11 1
45 15 1
45 16 1
45 17 1
45 18 1
45 19 1
45 23 1
45 25 1
45 27 1
45 29 1
45 30 1
45 31 1
45 32 1
45 34 1
45 36 1
45 37 1
45 39 1
45 43 1
45 44 1
46 1 1
46 2 1
46 3 1
46 6 1
46 7 1
46 8 1
46 10 1
46 13 1
46 16 1
46 17 1
46 21 1
46 22 1
46 23 1
46 25 1
46 26 1
46 28 1
46 30 1
46 35 1
46 37 1
46 40 1
46 41 1
46 42 1
46 43 1
47 0 1
47 3 1
47 5 1
47 6 1
47 9 1
47 10 1
47 11 1
47 15 1
47 16 1
47 22 1
47 23 1
47 24 1
47 25 1
47 26 1
47 27 1
47 29 1
47 30 1
47 32 1
47 34 1
47 35 1
47 36 1
47 39 1
47 44 1
47 45 1
47 46 1
48 1 1
48 8 1
48 9 1
48 15 1
48 20 1
48 22 1
48 25 1
48 26 1
48 27 1
48 28 1
48 30 1
48 32 1
48 33 1
48 34 1
48 37 1
48 38 1
48 39 1
48 42 1
48 43 1
48 44 1
48 46 1
49 1 1
49 4 1
49 5 1
49 7 1
49 8 1
49 11 1
49 18 1
49 19 1
49 20 1
49 22 1
49 24 1
49 25 1
49 28 1
49 30 1
49 35 1
49 36 1
49 37 1
49 40 1
49 41 1
49 42 1
49 44 1
49 47 1
50 0 1
50 1 1
50 2 1
50 5 1
50 7 1
50 9 1
50 10 1
50 12 1
50 15 1
50 16 1
50 20 1
50 21 1
50 22 1
50 23 1
50 24 1
50 25 1
50 26 1
50 27 1
50 28 1
50 31 1
50 34 1
50 35 1
50 36 1
50 37 1
50 38 1
50 40 1
50 41 1
50 43 1
50 46 1
50 47 1
51 0 1
51 1 1
51 4 1
51 5 1
51 6 1
51 7 1
51 8 1
51 10 1
51 12 1
51 15 1
51 16 1
51 18 1
51 20 1
51 21 1
51 25 1
51 26 1
51 27 1
51 30 1
51 31 1
51 32 1
51 35 1
51 37 1
51 38 1
51 39 1
51 41 1
51 42 1
51 43 1
51 46 1
51 48 1
51 49 1
51 50 1
52 0 1
52 2 1
52 3 1
52 7 1
52 8 1
52 9 1
52 12 1
52 13 1
52 14 1
52 16 1
52 19 1
52 21 1
52 23 1
52 24 1
52 27 1
52 33 1
52 41 1
52 42 1
52 43 1
52 45 1
52 46 1
52 48 1
52 49 1
52 50 1
52 51 1
53 4 1
53 5 1
53 7 1
53 10 1
53 11 1
53 12 1
53 13 1
53 14 1
53 15 1
53 20 1
53 21 1
53 22 1
53 23 1
53 26 1
53 27 1
53 31 1
53 32 1
53 33 1
53 36 1
53 37 1
53 39 1
53 40 1
53 42 1
53 45 1
53 47 1
53 48 1
53 50 1
53 51 1
53 52 1
54 0 1
54 1 1
54 3 1
54 4 1
54 5 1
54 6 1
54 7 1
54 12 1
54 13 1
54 16 1
54 18 1
54 19 1
54 20 1
54 21 1
54 23 1
54 24 1
54 27 1
54 28 1
54 33 1
54 34 1
54 35 1
54 37 1
54 41 1
54 42 1
54 44 1
54 48 1
54 49 1
54 53 1
